ID_groupA,ID_groupB,ID_groupC,ID_groupD,ID_groupE
90331,86970,1468,126661,81780
90331,86970,1468,45512,81780
90331,81077,1468,56503,81780
59549,81077,1468,56503,81780
90331,81077,1468,56503,81780
90331,81077,1468,56503,50000
90331,81077,76609,2856,81780
90331,86970,1468,45512,81780
90331,124100,1468,45512,81780
90331,81077,1468,56906,81780
90331,86970,1468,126661,81780
90331,86970,1468,45512,81780
90331,81077,1468,56906,81780
90331,81077,1468,56906,81780
90331,86970,1468,45512,81780
90331,81077,1468,126661,81780
90331,81077,1468,56503,81780
90331,81077,1468,56503,81780
90331,81077,50275,56906,81780
90331,81077,76609,2856,81780
90331,86970,1468,45512,81780
90331,124100,1468,126661,81780
90331,81077,1468,56906,81780
90331,86970,1468,126661,81780
90331,86970,1468,45512,81780
90331,81077,1468,56503,81780
90331,81077,50275,56906,81780
90331,86970,1468,45512,81780
59549,81077,1468,45512,81780
90331,86970,1468,56503,81780
90331,86970,50275,56906,81780
90331,86970,76609,2856,81780
90331,86970,1468,45512,81780
90331,86970,1468,45512,81780
90331,86970,1468,45512,81780
90331,86970,1468,126661,81780
90331,86970,1468,45512,81780
90331,81077,1468,45512,81780
90331,86970,50275,56906,81780
59549,81077,59775,56503,60286
90331,81077,1468,56503,81780
90331,81077,50275,56906,81780
90331,81077,76609,2856,81780
90331,81077,1468,45512,81780
90331,124100,1468,56906,81780
90331,81077,1468,56906,81780
90331,81077,1468,126661,81780
90331,86970,1468,45512,81780
90331,81077,50275,56906,81780
90331,81077,50275,56906,81780
59549,81077,1468,56503,81780
59549,81077,50275,56906,81780
59549,81077,76609,2856,81780
59549,81077,1468,45512,81780
59549,124100,1468,2856,81780
90331,81077,1468,56503,81780
59549,86970,1468,45512,81780
59549,86970,1468,45512,81780
59549,81077,59775,56503,60286
59549,81077,50275,56906,81780
90331,81077,50275,56906,81780
90331,81077,76609,56503,81780
90331,124100,1468,56503,81780
90331,81077,1468,56503,81780
90331,81077,1468,56503,81780
90331,81077,1468,126661,81780
90331,81077,1468,56503,81780
90331,81077,1468,56503,81780
90331,81077,1468,56503,81780
90331,81077,50275,56906,81780
90331,124100,1468,56503,50000
90331,81077,1468,56503,50000
90331,81077,50275,56906,81780
90331,81077,1468,126661,81780
90331,81077,50275,56906,81780
90331,81077,50275,56906,81780
90331,81077,50275,56906,81780
90331,124100,1468,2856,81780
90331,124100,1468,2856,81780
90331,81077,76609,2856,81780
90331,86970,76609,126661,81780
90331,81077,76609,2856,81780
90331,81077,76609,2856,81780
90331,49866,76609,2856,81780
90331,86970,1468,45512,81780
90331,86970,1468,45512,81780
90331,124100,1468,126661,81780
90331,86970,1468,45512,81780
90331,81077,1468,45512,81780
90331,124100,1468,56906,81780
90331,124100,1468,45512,81780
90331,124100,1468,126661,81780
90331,124100,1468,45512,81780
90331,124100,1468,45512,81780
90331,124100,1468,56906,81780
90331,86970,1468,126661,81780
90331,86970,1468,45512,81780
90331,81077,1468,56503,81780
90331,81077,50275,56906,81780
90331,86970,1468,126661,81780
90331,86970,1468,126661,81780
90331,81077,50275,56906,81780
90331,86970,1468,45512,81780
90331,81077,50275,56906,81780
90331,81077,50275,56906,81780
